p cnf 13 37
c p weight 6 -1 0
c p weight -6 1 0
c p weight 8 6.12323399573676603586882014729198302312846062338790031898128063403419218957424163818359375E-17 0
c p weight -8 1 0
c p weight 9 1 0
c p weight -9 1 0
c p weight 10 -1 0
c p weight -10 1 0
c p weight 12 -1 0
c p weight -12 1 0
c p weight 13 -1 0
c p weight -13 1 0
-3 0
-1 0
5 1 -2 0
5 -1 2 0
-5 1 2 0
-5 -1 -2 0
-6 1 0
-6 2 0
6 -1 -2 0
7 -1 5 0
-7 1 5 0
-8 5 0
7 -8 -1 0
-7 -8 1 0
7 8 1 -5 0
-7 8 -1 -5 0
-9 5 0
7 -9 1 0
-7 -9 -1 0
7 9 -1 -5 0
-7 9 1 -5 0
-10 7 0
-10 5 0
-10 -1 0
10 -7 1 -5 0
11 7 -5 0
11 -7 5 0
-11 7 5 0
-11 -7 -5 0
-12 7 0
-12 5 0
12 -7 -5 0
13 -4 0
-13 4 0
-7 0
-3 0
-4 0
